DATASET = "thpack2";
INSTANCE = "027";

WIDTH = 233;
HEIGHT = 220;
LENGTH = 587;

NO_OF_SHAPES = 5;
size = [|
  118,66,47 |
  99,56,25 |
  91,83,48 |
  104,66,40 |
  75,60,33 |
|];

verticality = [|
  0,1,1 |
  0,0,1 |
  1,1,1 |
  0,1,1 |
  0,1,1 |
|];

box_count = [
  26,
  22,
  22,
  23,
  21,
];
